(set-info :smt-lib-version 2.6)
(set-info :category "crafted")
(set-logic QF_FFA)
(define-sort FF0 () (_ FiniteField 52435875175126190479447740508185965837690552500527637822603658699938581184513))
(declare-fun is_zero_n19_alt () FF0)
(declare-fun mul_n31_alt () FF0)
(declare-fun mul_n21_alt () FF0)
(declare-fun mul_n24_alt () FF0)
(declare-fun mul_n30_alt () FF0)
(declare-fun mul_n20_alt () FF0)
(declare-fun is_zero_n23_alt () FF0)
(declare-fun mul_n16_alt () FF0)
(declare-fun return_n0_alt () FF0)
(declare-fun is_zero_inv_n32_alt () FF0)
(declare-fun a_n2_alt () FF0)
(declare-fun mul_n29_alt () FF0)
(declare-fun is_zero_n28_alt () FF0)
(declare-fun mul_n3_alt () FF0)
(declare-fun mul_n15_alt () FF0)
(declare-fun mul_n14_alt () FF0)
(declare-fun b_n1_alt () FF0)
(declare-fun mul_n4_alt () FF0)
(declare-fun is_zero_n26_alt () FF0)
(declare-fun mul_n10_alt () FF0)
(declare-fun is_zero_n13_alt () FF0)
(declare-fun is_zero_inv_n27_alt () FF0)
(declare-fun mul_n5_alt () FF0)
(declare-fun is_zero_inv_n25_alt () FF0)
(declare-fun mul_n17_alt () FF0)
(declare-fun is_zero_inv_n22_alt () FF0)
(declare-fun is_zero_n7_alt () FF0)
(declare-fun is_zero_n9_alt () FF0)
(declare-fun mul_n11_alt () FF0)
(declare-fun is_zero_inv_n12_alt () FF0)
(declare-fun is_zero_inv_n8_alt () FF0)
(declare-fun is_zero_inv_n6_alt () FF0)
(declare-fun is_zero_n19 () FF0)
(declare-fun mul_n31 () FF0)
(declare-fun mul_n21 () FF0)
(declare-fun mul_n24 () FF0)
(declare-fun mul_n30 () FF0)
(declare-fun mul_n20 () FF0)
(declare-fun is_zero_n23 () FF0)
(declare-fun mul_n16 () FF0)
(declare-fun return_n0 () FF0)
(declare-fun is_zero_inv_n32 () FF0)
(declare-fun a_n2 () FF0)
(declare-fun mul_n29 () FF0)
(declare-fun is_zero_n28 () FF0)
(declare-fun mul_n3 () FF0)
(declare-fun mul_n15 () FF0)
(declare-fun mul_n14 () FF0)
(declare-fun b_n1 () FF0)
(declare-fun mul_n4 () FF0)
(declare-fun is_zero_n26 () FF0)
(declare-fun mul_n10 () FF0)
(declare-fun is_zero_n13 () FF0)
(declare-fun is_zero_inv_n27 () FF0)
(declare-fun mul_n5 () FF0)
(declare-fun is_zero_inv_n25 () FF0)
(declare-fun mul_n17 () FF0)
(declare-fun is_zero_inv_n22 () FF0)
(declare-fun is_zero_n7 () FF0)
(declare-fun is_zero_n9 () FF0)
(declare-fun mul_n11 () FF0)
(declare-fun is_zero_inv_n12 () FF0)
(declare-fun is_zero_inv_n8 () FF0)
(declare-fun is_zero_inv_n6 () FF0)
(assert 
  (let ((let0 (as ff0 FF0)))
  (let ((let1 (as ff2 FF0)))
  (let ((let2 (as ff52435875175126190479447740508185965837690552500527637822603658699938581184512 FF0)))
  (let ((let3 is_zero_n19_alt))
  (let ((let4 (ff.mul let3 let2)))
  (let ((let5 mul_n31_alt))
  (let ((let6 (ff.mul let5 let2)))
  (let ((let7 mul_n21_alt))
  (let ((let8 (ff.mul let7 let2)))
  (let ((let9 mul_n24_alt))
  (let ((let10 mul_n30_alt))
  (let ((let11 (ff.mul let10 let2)))
  (let ((let12 mul_n20_alt))
  (let ((let13 is_zero_n23_alt))
  (let ((let14 (ff.mul let13 let1)))
  (let ((let15 mul_n16_alt))
  (let ((let16 (ff.mul let15 let1)))
  (let ((let17 (ff.add let16 let14 let12 let11 let9 let8 let6 let4 let1)))
  (let ((let18 (as ff1 FF0)))
  (let ((let19 return_n0_alt))
  (let ((let20 (ff.mul let19 let2)))
  (let ((let21 (ff.add let20 let18)))
  (let ((let22 (ff.mul let21 let17)))
  (let ((let23 (= let22 let0)))
  (let ((let24 is_zero_inv_n32_alt))
  (let ((let25 (ff.mul let24 let17)))
  (let ((let26 (= let25 let19)))
  (let ((let27 (ff.add let4 let18)))
  (let ((let28 a_n2_alt))
  (let ((let29 (ff.mul let28 let27)))
  (let ((let30 (= let29 let5)))
  (let ((let31 mul_n29_alt))
  (let ((let32 (ff.mul let31 let13)))
  (let ((let33 (= let32 let10)))
  (let ((let34 is_zero_n28_alt))
  (let ((let35 (ff.mul let34 let2)))
  (let ((let36 (ff.add let35 let18)))
  (let ((let37 (ff.mul let36 let13)))
  (let ((let38 (= let37 let31)))
  (let ((let39 (as ff3 FF0)))
  (let ((let40 mul_n3_alt))
  (let ((let41 mul_n15_alt))
  (let ((let42 (ff.mul let41 let2)))
  (let ((let43 mul_n14_alt))
  (let ((let44 b_n1_alt))
  (let ((let45 (ff.mul let44 let2)))
  (let ((let46 mul_n4_alt))
  (let ((let47 is_zero_n26_alt))
  (let ((let48 (ff.mul let47 let2)))
  (let ((let49 mul_n10_alt))
  (let ((let50 (ff.mul let49 let2)))
  (let ((let51 is_zero_n13_alt))
  (let ((let52 (ff.add let4 let51 let50 let48 let46 let45 let43 let28 let42 let40 let39)))
  (let ((let53 (ff.mul let34 let52)))
  (let ((let54 (= let53 let0)))
  (let ((let55 is_zero_inv_n27_alt))
  (let ((let56 (ff.mul let55 let52)))
  (let ((let57 (= let56 let36)))
  (let ((let58 (as ff4 FF0)))
  (let ((let59 (ff.mul let40 let2)))
  (let ((let60 mul_n5_alt))
  (let ((let61 (ff.mul let60 let2)))
  (let ((let62 (ff.mul let28 let2)))
  (let ((let63 (ff.add let51 let50 let62 let61 let59 let58)))
  (let ((let64 (ff.mul let47 let63)))
  (let ((let65 (= let64 let0)))
  (let ((let66 (ff.add let48 let18)))
  (let ((let67 is_zero_inv_n25_alt))
  (let ((let68 (ff.mul let67 let63)))
  (let ((let69 (= let68 let66)))
  (let ((let70 (ff.mul let13 let2)))
  (let ((let71 (ff.add let70 let18)))
  (let ((let72 (as ff52435875175126190479447740508185965837690552500527637822603658699938581184511 FF0)))
  (let ((let73 (ff.mul let15 let72)))
  (let ((let74 (ff.add let73 let1)))
  (let ((let75 (ff.mul let74 let71)))
  (let ((let76 (= let75 let9)))
  (let ((let77 (ff.mul let43 let2)))
  (let ((let78 mul_n17_alt))
  (let ((let79 (ff.mul let78 let2)))
  (let ((let80 (ff.mul let12 let2)))
  (let ((let81 (ff.mul let51 let2)))
  (let ((let82 (ff.mul let49 let1)))
  (let ((let83 (ff.mul let15 let2)))
  (let ((let84 (ff.add let83 let82 let81 let80 let79 let77 let7 let41 let3 let39)))
  (let ((let85 (ff.mul let13 let84)))
  (let ((let86 (= let85 let0)))
  (let ((let87 is_zero_inv_n22_alt))
  (let ((let88 (ff.mul let87 let84)))
  (let ((let89 (= let88 let71)))
  (let ((let90 (ff.add let79 let18)))
  (let ((let91 (ff.mul let3 let72)))
  (let ((let92 (ff.mul let78 let1)))
  (let ((let93 (ff.mul let12 let1)))
  (let ((let94 (ff.add let93 let92 let91)))
  (let ((let95 (ff.mul let94 let90)))
  (let ((let96 (= let95 let7)))
  (let ((let97 (ff.mul let3 let1)))
  (let ((let98 (ff.mul let97 let90)))
  (let ((let99 (= let98 let12)))
  (let ((let100 (ff.mul let46 let2)))
  (let ((let101 is_zero_n7_alt))
  (let ((let102 (ff.mul let101 let2)))
  (let ((let103 (ff.add let62 let102 let100 let45 let77 let59 let58)))
  (let ((let104 (ff.mul let3 let103)))
  (let ((let105 (= let104 let0)))
  (let ((let106 (ff.add let51 let28 let46 let43 let40 let2)))
  (let ((let107 (ff.mul let106 let15)))
  (let ((let108 (= let107 let78)))
  (let ((let109 is_zero_n9_alt))
  (let ((let110 (ff.mul let109 let2)))
  (let ((let111 (ff.add let110 let18)))
  (let ((let112 (ff.mul let28 let111)))
  (let ((let113 (= let112 let15)))
  (let ((let114 (ff.add let50 let18)))
  (let ((let115 (ff.mul let40 let1)))
  (let ((let116 (ff.mul let43 let1)))
  (let ((let117 (ff.mul let46 let1)))
  (let ((let118 (ff.mul let28 let1)))
  (let ((let119 (ff.mul let51 let1)))
  (let ((let120 (ff.add let119 let118 let117 let116 let115 let72)))
  (let ((let121 (ff.mul let120 let114)))
  (let ((let122 (= let121 let41)))
  (let ((let123 (ff.add let100 let62 let59 let18)))
  (let ((let124 (ff.mul let51 let72)))
  (let ((let125 (ff.add let124 let1)))
  (let ((let126 (ff.mul let125 let123)))
  (let ((let127 (= let126 let43)))
  (let ((let128 mul_n11_alt))
  (let ((let129 (ff.mul let128 let72)))
  (let ((let130 (ff.add let60 let82 let109 let129 let1)))
  (let ((let131 (ff.mul let51 let130)))
  (let ((let132 (= let131 let0)))
  (let ((let133 (ff.add let81 let18)))
  (let ((let134 is_zero_inv_n12_alt))
  (let ((let135 (ff.mul let134 let130)))
  (let ((let136 (= let135 let133)))
  (let ((let137 (ff.mul let60 let111)))
  (let ((let138 (= let137 let128)))
  (let ((let139 (ff.mul let123 let109)))
  (let ((let140 (= let139 let49)))
  (let ((let141 (ff.mul let101 let72)))
  (let ((let142 (ff.add let118 let141 let117 let115 let39)))
  (let ((let143 (ff.mul let109 let142)))
  (let ((let144 (= let143 let0)))
  (let ((let145 is_zero_inv_n8_alt))
  (let ((let146 (ff.mul let145 let142)))
  (let ((let147 (= let146 let111)))
  (let ((let148 (ff.add let60 let46 let45 let40 let39)))
  (let ((let149 (ff.mul let101 let148)))
  (let ((let150 (= let149 let0)))
  (let ((let151 (ff.add let102 let18)))
  (let ((let152 is_zero_inv_n6_alt))
  (let ((let153 (ff.mul let152 let148)))
  (let ((let154 (= let153 let151)))
  (let ((let155 (ff.add let46 let28 let40)))
  (let ((let156 (ff.add let62 let59 let18)))
  (let ((let157 (ff.mul let156 let155)))
  (let ((let158 (= let157 let60)))
  (let ((let159 (ff.add let44 let62 let59)))
  (let ((let160 (ff.add let28 let40)))
  (let ((let161 (ff.mul let160 let159)))
  (let ((let162 (= let161 let46)))
  (let ((let163 (ff.add let44 let62)))
  (let ((let164 (ff.mul let28 let163)))
  (let ((let165 (= let164 let40)))
  (let ((let166 (and let165 let162 let158 let154 let150 let147 let144 let140 let138 let136 let132 let127 let122 let113 let108 let105 let99 let96 let89 let86 let76 let69 let65 let57 let54 let38 let33 let30 let26 let23)))
  (let ((let167 is_zero_n19))
  (let ((let168 (ff.mul let167 let2)))
  (let ((let169 mul_n31))
  (let ((let170 (ff.mul let169 let2)))
  (let ((let171 mul_n21))
  (let ((let172 (ff.mul let171 let2)))
  (let ((let173 mul_n24))
  (let ((let174 mul_n30))
  (let ((let175 (ff.mul let174 let2)))
  (let ((let176 mul_n20))
  (let ((let177 is_zero_n23))
  (let ((let178 (ff.mul let177 let1)))
  (let ((let179 mul_n16))
  (let ((let180 (ff.mul let179 let1)))
  (let ((let181 (ff.add let180 let178 let176 let175 let173 let172 let170 let168 let1)))
  (let ((let182 return_n0))
  (let ((let183 (ff.mul let182 let2)))
  (let ((let184 (ff.add let183 let18)))
  (let ((let185 (ff.mul let184 let181)))
  (let ((let186 (= let185 let0)))
  (let ((let187 is_zero_inv_n32))
  (let ((let188 (ff.mul let187 let181)))
  (let ((let189 (= let188 let182)))
  (let ((let190 (ff.add let168 let18)))
  (let ((let191 a_n2))
  (let ((let192 (ff.mul let191 let190)))
  (let ((let193 (= let192 let169)))
  (let ((let194 mul_n29))
  (let ((let195 (ff.mul let194 let177)))
  (let ((let196 (= let195 let174)))
  (let ((let197 is_zero_n28))
  (let ((let198 (ff.mul let197 let2)))
  (let ((let199 (ff.add let198 let18)))
  (let ((let200 (ff.mul let199 let177)))
  (let ((let201 (= let200 let194)))
  (let ((let202 mul_n3))
  (let ((let203 mul_n15))
  (let ((let204 (ff.mul let203 let2)))
  (let ((let205 mul_n14))
  (let ((let206 b_n1))
  (let ((let207 (ff.mul let206 let2)))
  (let ((let208 mul_n4))
  (let ((let209 is_zero_n26))
  (let ((let210 (ff.mul let209 let2)))
  (let ((let211 mul_n10))
  (let ((let212 (ff.mul let211 let2)))
  (let ((let213 is_zero_n13))
  (let ((let214 (ff.add let168 let213 let212 let210 let208 let207 let205 let191 let204 let202 let39)))
  (let ((let215 (ff.mul let197 let214)))
  (let ((let216 (= let215 let0)))
  (let ((let217 is_zero_inv_n27))
  (let ((let218 (ff.mul let217 let214)))
  (let ((let219 (= let218 let199)))
  (let ((let220 (ff.mul let202 let2)))
  (let ((let221 mul_n5))
  (let ((let222 (ff.mul let221 let2)))
  (let ((let223 (ff.mul let191 let2)))
  (let ((let224 (ff.add let213 let212 let223 let222 let220 let58)))
  (let ((let225 (ff.mul let209 let224)))
  (let ((let226 (= let225 let0)))
  (let ((let227 (ff.add let210 let18)))
  (let ((let228 is_zero_inv_n25))
  (let ((let229 (ff.mul let228 let224)))
  (let ((let230 (= let229 let227)))
  (let ((let231 (ff.mul let177 let2)))
  (let ((let232 (ff.add let231 let18)))
  (let ((let233 (ff.mul let179 let72)))
  (let ((let234 (ff.add let233 let1)))
  (let ((let235 (ff.mul let234 let232)))
  (let ((let236 (= let235 let173)))
  (let ((let237 (ff.mul let205 let2)))
  (let ((let238 mul_n17))
  (let ((let239 (ff.mul let238 let2)))
  (let ((let240 (ff.mul let176 let2)))
  (let ((let241 (ff.mul let213 let2)))
  (let ((let242 (ff.mul let211 let1)))
  (let ((let243 (ff.mul let179 let2)))
  (let ((let244 (ff.add let243 let242 let241 let240 let239 let237 let171 let203 let167 let39)))
  (let ((let245 (ff.mul let177 let244)))
  (let ((let246 (= let245 let0)))
  (let ((let247 is_zero_inv_n22))
  (let ((let248 (ff.mul let247 let244)))
  (let ((let249 (= let248 let232)))
  (let ((let250 (ff.add let239 let18)))
  (let ((let251 (ff.mul let167 let72)))
  (let ((let252 (ff.mul let238 let1)))
  (let ((let253 (ff.mul let176 let1)))
  (let ((let254 (ff.add let253 let252 let251)))
  (let ((let255 (ff.mul let254 let250)))
  (let ((let256 (= let255 let171)))
  (let ((let257 (ff.mul let167 let1)))
  (let ((let258 (ff.mul let257 let250)))
  (let ((let259 (= let258 let176)))
  (let ((let260 (ff.mul let208 let2)))
  (let ((let261 is_zero_n7))
  (let ((let262 (ff.mul let261 let2)))
  (let ((let263 (ff.add let223 let262 let260 let207 let237 let220 let58)))
  (let ((let264 (ff.mul let167 let263)))
  (let ((let265 (= let264 let0)))
  (let ((let266 (ff.add let213 let191 let208 let205 let202 let2)))
  (let ((let267 (ff.mul let266 let179)))
  (let ((let268 (= let267 let238)))
  (let ((let269 is_zero_n9))
  (let ((let270 (ff.mul let269 let2)))
  (let ((let271 (ff.add let270 let18)))
  (let ((let272 (ff.mul let191 let271)))
  (let ((let273 (= let272 let179)))
  (let ((let274 (ff.add let212 let18)))
  (let ((let275 (ff.mul let202 let1)))
  (let ((let276 (ff.mul let205 let1)))
  (let ((let277 (ff.mul let208 let1)))
  (let ((let278 (ff.mul let191 let1)))
  (let ((let279 (ff.mul let213 let1)))
  (let ((let280 (ff.add let279 let278 let277 let276 let275 let72)))
  (let ((let281 (ff.mul let280 let274)))
  (let ((let282 (= let281 let203)))
  (let ((let283 (ff.add let260 let223 let220 let18)))
  (let ((let284 (ff.mul let213 let72)))
  (let ((let285 (ff.add let284 let1)))
  (let ((let286 (ff.mul let285 let283)))
  (let ((let287 (= let286 let205)))
  (let ((let288 mul_n11))
  (let ((let289 (ff.mul let288 let72)))
  (let ((let290 (ff.add let221 let242 let269 let289 let1)))
  (let ((let291 (ff.mul let213 let290)))
  (let ((let292 (= let291 let0)))
  (let ((let293 (ff.add let241 let18)))
  (let ((let294 is_zero_inv_n12))
  (let ((let295 (ff.mul let294 let290)))
  (let ((let296 (= let295 let293)))
  (let ((let297 (ff.mul let221 let271)))
  (let ((let298 (= let297 let288)))
  (let ((let299 (ff.mul let283 let269)))
  (let ((let300 (= let299 let211)))
  (let ((let301 (ff.mul let261 let72)))
  (let ((let302 (ff.add let278 let301 let277 let275 let39)))
  (let ((let303 (ff.mul let269 let302)))
  (let ((let304 (= let303 let0)))
  (let ((let305 is_zero_inv_n8))
  (let ((let306 (ff.mul let305 let302)))
  (let ((let307 (= let306 let271)))
  (let ((let308 (ff.add let221 let208 let207 let202 let39)))
  (let ((let309 (ff.mul let261 let308)))
  (let ((let310 (= let309 let0)))
  (let ((let311 (ff.add let262 let18)))
  (let ((let312 is_zero_inv_n6))
  (let ((let313 (ff.mul let312 let308)))
  (let ((let314 (= let313 let311)))
  (let ((let315 (ff.add let208 let191 let202)))
  (let ((let316 (ff.add let223 let220 let18)))
  (let ((let317 (ff.mul let316 let315)))
  (let ((let318 (= let317 let221)))
  (let ((let319 (ff.add let206 let223 let220)))
  (let ((let320 (ff.add let191 let202)))
  (let ((let321 (ff.mul let320 let319)))
  (let ((let322 (= let321 let208)))
  (let ((let323 (ff.add let206 let223)))
  (let ((let324 (ff.mul let191 let323)))
  (let ((let325 (= let324 let202)))
  (let ((let326 (and let325 let322 let318 let314 let310 let307 let304 let300 let298 let296 let292 let287 let282 let273 let268 let265 let259 let256 let249 let246 let236 let230 let226 let219 let216 let201 let196 let193 let189 let186)))
  (let ((let327 (= let182 let19)))
  (let ((let328 (not let327)))
  (let ((let329 (= let191 let28)))
  (let ((let330 (= let206 let44)))
  (let ((let331 (and let330 let329)))
  (let ((let332 (and let331 let328 let326 let166)))
  let332
)))))))))))))))))))))))))))))))))))))))))))))))))))))))))))))))))))))))))))))))))))))))))))))))))))))))))))))))))))))))))))))))))))))))))))))))))))))))))))))))))))))))))))))))))))))))))))))))))))))))))))))))))))))))))))))))))))))))))))))))))))))))))))))))))))))))))))))))))))))))))))))))))))))))))))))))))))))))))))))))))))))))))))))
)
(check-sat)
